!-Fixture: Leeds archetype template — new-build semi-detached house, 2020s (overheatlens project).
!-Derived from fixtures/idf/synthetic_dwelling.idf (field layouts verified against the
!-EnergyPlus 25.1 IDD). Illustrative template: representative form and fabric of a 2020s
!-semi-detached new build — highly insulated cavity walls, large glazing, 0.25 ach
!-infiltration — NOT a surveyed dwelling. Same RunPeriod, gains patterns and outputs as
!-the synthetic fixture.

Version, 25.1;

Timestep, 6;

SimulationControl,
  No, No, No, No, Yes;

RunPeriod,
  Annual run,              !- Name (A1 is a NAME field in IDD 25.1)
  1, 1,                    !- Begin Month / Day
  ,                        !- Begin Year
  12, 31,                  !- End Month / Day
  ,                        !- End Year
  Monday,                  !- Day of Week for Start Day
  Yes, Yes, Yes, Yes;

Building,
  Leeds Semi New Build,
  0, Suburbs,
  0.04, 0.4,
  FullExterior,
  30, 6;

GlobalGeometryRules,
  UpperLeftCorner, CounterClockwise, World, World, World;

!- ------------------ constructions (2020s insulated cavity) --------------------

Material,
  G01a 19mm gypsum board,
  MediumSmooth,
  0.019,
  0.16,
  800,
  1090,
  0.9, 0.4, 0.0;

Material,
  B02 102mm brick outer leaf,
  MediumRough,
  0.102,
  0.77,
  1700,
  840,
  0.9, 0.7, 0.7;

Material,
  IW18 180mm mineral wool,
  Rough,
  0.180,
  0.030,
  43,
  840,
  0.9, 0.5, 0.5;

Material,
  M11 100mm lightweight roof,
  Rough,
  0.1,
  0.14,
  300,
  1400,
  0.9, 0.6, 0.0;

Material:AirGap,
  F04 Wall air gap resistance, 0.15;
Material:AirGap,
  F05 Floor air gap resistance, 0.17;
Material:AirGap,
  F04 Ceiling air gap resistance, 0.17;

Construction,
  Cavity Wall 2020s,
  B02 102mm brick outer leaf,
  F04 Wall air gap resistance,
  IW18 180mm mineral wool,
  G01a 19mm gypsum board;

Construction,
  Light Roof,
  M11 100mm lightweight roof,
  F04 Ceiling air gap resistance,
  G01a 19mm gypsum board;

Construction,
  Light Floor,
  G01a 19mm gypsum board,
  F05 Floor air gap resistance,
  G01a 19mm gypsum board;

WindowMaterial:SimpleGlazingSystem,
  Simple glazing,
  1.4,
  0.6,
  0.7;

Construction,
  Window construction,
  Simple glazing;

!- -------------------------------- zones ---------------------------------------
!- Living room 6.0 x 4.5 m; Bedroom 1 5.0 x 4.0 m; height 2.7 m.

Zone,
  Living room,             !- Name (A1)
  0,                       !- Direction of Relative North (N1)
  0, 0, 0,                 !- XYZ Origin (N2-N4)
  1,                       !- Type (N5)
  1,                       !- Multiplier (N6)
  autocalculate,           !- Ceiling Height (N7)
  autocalculate,           !- Volume (N8)
  autocalculate,           !- Floor Area (N9)
  ,                        !- Inside Convection Algorithm (A2)
  ,                        !- Outside Convection Algorithm (A3)
  yes;                     !- Part of Total Floor Area (A4)

Zone,
  Bedroom 1,
  0,
  0, 0, 0,
  1,
  1,
  autocalculate,
  autocalculate,
  autocalculate,
  ,
  ,
  yes;

!- ------------------------------ surfaces --------------------------------------
!- IDD 25.1 layout: A1 Name, A2 Type, A3 Construction, A4 Zone, A5 Space Name,
!- A6 Outside BC, A7 Outside BC Object, A8 Sun, A9 Wind, N1 View Factor,
!- N2 Number of Vertices, then coordinates.

BuildingSurface:Detailed,
  Living room Wall N,
  Wall,
  Cavity Wall 2020s,
  Living room,
  ,
  Outdoors,
  ,
  SunExposed,
  WindExposed,
  autocalculate,
  4,
  0, 0, 2.7,  6, 0, 2.7,  6, 0, 0,  0, 0, 0;

BuildingSurface:Detailed,
  Living room Floor,
  Floor,
  Light Floor,
  Living room,
  ,
  Ground,
  ,
  NoSun,
  NoWind,
  autocalculate,
  4,
  0, 0, 0,  6, 0, 0,  6, -4.5, 0,  0, -4.5, 0;

BuildingSurface:Detailed,
  Living room Roof,
  Roof,
  Light Roof,
  Living room,
  ,
  Outdoors,
  ,
  SunExposed,
  WindExposed,
  autocalculate,
  4,
  0, -4.5, 2.7,  6, -4.5, 2.7,  6, 0, 2.7,  0, 0, 2.7;

BuildingSurface:Detailed,
  Bedroom Wall N,
  Wall,
  Cavity Wall 2020s,
  Bedroom 1,
  ,
  Outdoors,
  ,
  SunExposed,
  WindExposed,
  autocalculate,
  4,
  0, 0, 2.7,  5, 0, 2.7,  5, 0, 0,  0, 0, 0;

!- Second exposed facet for the bedroom (east gable of the semi).

BuildingSurface:Detailed,
  Bedroom Wall E,
  Wall,
  Cavity Wall 2020s,
  Bedroom 1,
  ,
  Outdoors,
  ,
  SunExposed,
  WindExposed,
  autocalculate,
  4,
  5, 0, 2.7,  5, -4, 2.7,  5, -4, 0,  5, 0, 0;

BuildingSurface:Detailed,
  Bedroom Floor,
  Floor,
  Light Floor,
  Bedroom 1,
  ,
  Ground,
  ,
  NoSun,
  NoWind,
  autocalculate,
  4,
  0, 0, 0,  5, 0, 0,  5, -4, 0,  0, -4, 0;

BuildingSurface:Detailed,
  Bedroom Roof,
  Roof,
  Light Roof,
  Bedroom 1,
  ,
  Outdoors,
  ,
  SunExposed,
  WindExposed,
  autocalculate,
  4,
  0, -4, 2.7,  5, -4, 2.7,  5, 0, 2.7,  0, 0, 2.7;

!- Windows: A1 Name, A2 Type, A3 Construction, A4 Base Surface, A5 OBC Object,
!- N1 View Factor, A6 Frame/Divider, N2 Multiplier, N3 Number of Vertices, coords.
!- Large glazing: living 3.0 x 1.5 m; bedroom 2.5 x 1.2 m plus a 1.2 x 1.2 m
!- window on the new east bedroom facet.

FenestrationSurface:Detailed,
  Living window,
  Window,
  Window construction,
  Living room Wall N,
  ,
  autocalculate,
  ,
  1.0,
  4,
  1.5, 0, 2.4,  4.5, 0, 2.4,  4.5, 0, 0.9,  1.5, 0, 0.9;

FenestrationSurface:Detailed,
  Bedroom window,
  Window,
  Window construction,
  Bedroom Wall N,
  ,
  autocalculate,
  ,
  1.0,
  4,
  1, 0, 2.2,  3.5, 0, 2.2,  3.5, 0, 1.0,  1, 0, 1.0;

FenestrationSurface:Detailed,
  Bedroom window E,
  Window,
  Window construction,
  Bedroom Wall E,
  ,
  autocalculate,
  ,
  1.0,
  4,
  5, -1, 2.2,  5, -2.2, 2.2,  5, -2.2, 1.0,  5, -1, 1.0;

!- --------------------- schedules (TM59-style profiles) ------------------------

ScheduleTypeLimits,
  Fraction,
  0.0, 1.0, CONTINUOUS;

ScheduleTypeLimits,
  AnyNumber;

Schedule:Compact,
  Living occupancy,
  Fraction,
  Through: 12/31,
  For: AllDays,
  Until: 09:00, 0.0,
  Until: 22:00, 1.0,
  Until: 24:00, 0.0;

Schedule:Compact,
  Bedroom occupancy,
  Fraction,
  Through: 12/31,
  For: AllDays,
  Until: 08:00, 1.0,
  Until: 23:00, 0.0,
  Until: 24:00, 1.0;

Schedule:Compact,
  Living equipment,
  Fraction,
  Through: 12/31,
  For: AllDays,
  Until: 09:00, 0.1,
  Until: 22:00, 1.0,
  Until: 24:00, 0.2;

Schedule:Compact,
  Bedroom equipment,
  Fraction,
  Through: 12/31,
  For: AllDays,
  Until: 08:00, 0.3,
  Until: 23:00, 0.05,
  Until: 24:00, 0.3;

Schedule:Compact,
  Vent availability,
  Fraction,
  Through: 12/31,
  For: AllDays,
  Until: 24:00, 1.0;

Schedule:Compact,
  Activity level,
  AnyNumber,
  Through: 12/31,
  For: AllDays,
  Until: 24:00, 120;

!- ------------------------------ internal gains --------------------------------
!- People: A1 Name, A2 Zone, A3 Schedule, A4 Method, N1 Count, N2 per-area,
!- N3 area-per-person, N4 Fraction Radiant, N5 Sensible Heat Fraction, A5 Activity.

People,
  Living room People,
  Living room,
  Living occupancy,
  People,
  2,
  0,
  0,
  0.3,
  0.3,
  Activity level;

People,
  Bedroom People,
  Bedroom 1,
  Bedroom occupancy,
  People,
  2,
  0,
  0,
  0.3,
  0.3,
  Activity level;

Lights,
  Living room Lights,
  Living room,
  Living equipment,
  LightingLevel,
  100,
  0,
  0,
  0.3,
  0.4;

Lights,
  Bedroom Lights,
  Bedroom 1,
  Bedroom equipment,
  LightingLevel,
  60,
  0,
  0,
  0.3,
  0.4;

ElectricEquipment,
  Living room Equip,
  Living room,
  Living equipment,
  EquipmentLevel,
  150,
  0,
  0.3,
  0.4;

ElectricEquipment,
  Bedroom Equip,
  Bedroom 1,
  Bedroom equipment,
  EquipmentLevel,
  60,
  0,
  0.3,
  0.4;

!- --------------------------- infiltration + openings ---------------------------
!- Airtight 2020s fabric: 0.25 ach design infiltration.

ZoneInfiltration:DesignFlowRate,
  Living room Infiltration,
  Living room,
  Vent availability,
  AirChanges/Hour,
  ,                      !- Design Flow Rate (N1)
  ,                      !- Flow Rate per Floor Area (N2)
  ,                      !- Flow Rate per Exterior Surface Area (N3)
  0.25;                  !- Air Changes per Hour (N4)

ZoneInfiltration:DesignFlowRate,
  Bedroom Infiltration,
  Bedroom 1,
  Vent availability,
  AirChanges/Hour,
  ,                      !- Design Flow Rate (N1)
  ,                      !- Flow Rate per Floor Area (N2)
  ,                      !- Flow Rate per Exterior Surface Area (N3)
  0.25;                  !- Air Changes per Hour (N4)

!- ZoneVentilation:WindandStackOpenArea (IDD 25.1): A1 Name, A2 Zone,
!- N1 Opening Area, A3 Schedule, N2 Effectiveness, N3 Angle, N4 Height Diff,
!- N5 Discharge Coefficient.

ZoneVentilation:WindandStackOpenArea,
  Living window Vent,
  Living room,
  3.0,
  Vent availability,
  0.5,
  0.0,
  1.1,
  0.45;

ZoneVentilation:WindandStackOpenArea,
  Bedroom window Vent,
  Bedroom 1,
  2.0,
  Vent availability,
  0.5,
  0.0,
  1.1,
  0.45;

!- -------------------------------- outputs --------------------------------------

Output:Variable,
  *,
  Zone Mean Air Temperature,
  hourly;

Output:Variable,
  *,
  Zone Mean Radiant Temperature,
  hourly;

Output:Variable,
  *,
  Zone Air Relative Humidity,
  hourly;
